SCIP version 5.0.0 [precision: 8 byte] [memory: block] [mode: optimized] [LP solver: NONE] [GitHash: 3bbd232]
Copyright (C) 2002-2017 Konrad-Zuse-Zentrum fuer Informationstechnik Berlin (ZIB)

External codes: 
  Readline EditLine w  GNU library for command line editing (gnu.org/s/readline)
  CppAD 20160000.1     Algorithmic Differentiation of C++ algorithms developed by B. Bell (www.coin-or.org/CppAD)
  ZLIB 1.2.5           General purpose compression library by J. Gailly and M. Adler (zlib.net)
  GMP 6.1.2            GNU Multiple Precision Arithmetic Library developed by T. Granlund (gmplib.org)

user parameter file <scip.set> not found - using default parameters

read problem <../../Split_data/output/spectf/0/4_sample_spectf.logreg>
============

File name	:	../../Split_data/output/spectf/0/4_sample_spectf.logreg
Problem name 	:	4_sample_spectf
Number of data	:	213
Number of var	:	44
The given data has linear independence

[dim=1] time: 0.008212
[dim=2] time: 0.016663
[dim=3] time: 0.024452
[dim=4] time: 0.031345
[dim=5] time: 0.038627
[dim=6] time: 0.045264
[dim=7] time: 0.051967
[dim=8] Time of forward = 0.058008sec.
AIC: 145.241
k: 7

[dim=44] time: 0.03182
[dim=43] time: 0.053348
[dim=42] time: 0.067138
[dim=41] time: 0.081381
[dim=40] time: 0.098385
[dim=39] time: 0.115641
[dim=38] time: 0.128182
[dim=37] time: 0.142956
[dim=36] time: 0.156413
[dim=35] time: 0.167633
[dim=34] time: 0.180857
[dim=33] time: 0.193876
[dim=32] time: 0.204302
[dim=31] time: 0.214961
[dim=30] Time of backward = 0.226346sec.
AIC: 150.099
k: 31
